NAME: map0_180
TYPE: TSP
COMMENT: autogenerated using a wonderful map creator
DIMENSION: 210
EDGE_WEIGHT_TYPE: EUC_2D
NODE_COORD_SECTION
1 34.0 126.0
2 35.0 126.0
3 36.0 126.0
4 37.0 126.0
5 38.0 126.0
6 2.0 39.0
7 2.0 38.0
8 88.0 2.0
9 87.0 2.0
10 86.0 2.0
11 85.0 2.0
12 84.0 2.0
13 126.0 75.0
14 126.0 74.0
15 126.0 73.0
16 39.0 126.0
17 40.0 126.0
18 41.0 126.0
19 42.0 126.0
20 43.0 126.0
21 2.0 37.0
22 2.0 36.0
23 2.0 35.0
24 83.0 2.0
25 82.0 2.0
26 81.0 2.0
27 80.0 2.0
28 79.0 2.0
29 126.0 72.0
30 126.0 71.0
31 34.0 127.0
32 35.0 127.0
33 36.0 127.0
34 37.0 127.0
35 38.0 127.0
36 1.0 39.0
37 1.0 38.0
38 88.0 1.0
39 87.0 1.0
40 86.0 1.0
41 85.0 1.0
42 84.0 1.0
43 127.0 75.0
44 127.0 74.0
45 127.0 73.0
46 39.0 127.0
47 40.0 127.0
48 41.0 127.0
49 42.0 127.0
50 43.0 127.0
51 1.0 37.0
52 1.0 36.0
53 1.0 35.0
54 83.0 1.0
55 82.0 1.0
56 81.0 1.0
57 80.0 1.0
58 79.0 1.0
59 127.0 72.0
60 127.0 71.0
61 75.0 106.0
62 58.0 120.0
63 89.0 13.0
64 115.0 105.0
65 72.0 100.0
66 116.0 15.0
67 2.0 57.0
68 63.0 43.0
69 28.0 21.0
70 5.0 19.0
71 34.0 37.0
72 43.0 12.0
73 60.0 46.0
74 78.0 61.0
75 98.0 94.0
76 42.0 41.0
77 62.0 74.0
78 87.0 73.0
79 34.0 3.0
80 74.0 48.0
81 3.0 6.0
82 122.0 106.0
83 112.0 114.0
84 6.0 114.0
85 100.0 112.0
86 50.0 38.0
87 116.0 38.0
88 51.0 100.0
89 64.0 64.0
90 108.0 34.0
91 27.0 118.0
92 27.0 63.0
93 62.0 30.0
94 117.0 112.0
95 21.0 105.0
96 96.0 19.0
97 114.0 67.0
98 106.0 118.0
99 96.0 83.0
100 41.0 28.0
101 60.0 41.0
102 77.0 48.0
103 55.0 45.0
104 90.0 85.0
105 16.0 81.0
106 19.0 52.0
107 66.0 48.0
108 122.0 55.0
109 92.0 85.0
110 52.0 12.0
111 98.0 64.0
112 40.0 111.0
113 72.0 54.0
114 42.0 20.0
115 115.0 77.0
116 55.0 56.0
117 93.0 104.0
118 87.0 70.0
119 25.0 40.0
120 58.0 67.0
121 14.0 76.0
122 67.0 24.0
123 38.0 107.0
124 106.0 104.0
125 98.0 121.0
126 107.0 69.0
127 96.0 23.0
128 122.0 14.0
129 1.0 87.0
130 85.0 38.0
131 28.0 105.0
132 36.0 63.0
133 20.0 76.0
134 45.0 75.0
135 51.0 54.0
136 15.0 98.0
137 74.0 65.0
138 12.0 26.0
139 43.0 68.0
140 23.0 44.0
141 61.0 92.0
142 119.0 109.0
143 7.0 11.0
144 76.0 37.0
145 117.0 75.0
146 25.0 35.0
147 8.0 113.0
148 94.0 61.0
149 111.0 77.0
150 126.0 59.0
151 81.0 45.0
152 43.0 70.0
153 123.0 124.0
154 101.0 2.0
155 120.0 56.0
156 118.0 18.0
157 88.0 69.0
158 10.0 76.0
159 125.0 97.0
160 7.0 68.0
161 102.0 104.0
162 49.0 13.0
163 82.0 89.0
164 37.0 2.0
165 78.0 67.0
166 61.0 60.0
167 80.0 82.0
168 55.0 28.0
169 26.0 1.0
170 119.0 104.0
171 53.0 58.0
172 102.0 42.0
173 85.0 90.0
174 46.0 19.0
175 5.0 109.0
176 21.0 72.0
177 109.0 20.0
178 69.0 75.0
179 96.0 59.0
180 58.0 84.0
181 102.0 17.0
182 15.0 113.0
183 79.0 61.0
184 16.0 57.0
185 15.0 122.0
186 89.0 105.0
187 99.0 82.0
188 40.0 5.0
189 47.0 117.0
190 22.0 127.0
191 40.0 23.0
192 35.0 91.0
193 70.0 58.0
194 112.0 94.0
195 9.0 54.0
196 90.0 36.0
197 52.0 116.0
198 87.0 83.0
199 49.0 44.0
200 41.0 61.0
201 108.0 60.0
202 109.0 107.0
203 66.0 90.0
204 126.0 40.0
205 86.0 68.0
206 115.0 19.0
207 95.0 16.0
208 50.0 112.0
209 80.0 125.0
210 36.0 67.0
211 78.0 27.0
212 127.0 11.0
213 33.0 59.0
214 124.0 24.0
215 18.0 104.0
216 42.0 71.0
217 27.0 18.0
218 34.0 33.0
219 48.0 105.0
220 91.0 94.0
221 46.0 71.0
222 80.0 45.0
223 49.0 21.0
224 67.0 57.0
225 75.0 104.0
226 52.0 47.0
227 38.0 30.0
228 84.0 91.0
229 26.0 101.0
230 93.0 66.0
231 102.0 14.0
232 82.0 54.0
233 120.0 38.0
234 122.0 1.0
235 48.0 61.0
236 92.0 95.0
237 91.0 105.0
238 100.0 117.0
239 118.0 31.0
240 14.0 56.0
START_DEPOT_SECTION
1
2
3
4
5
6
7
8
9
10
11
12
13
14
15
16
17
18
19
20
21
22
23
24
25
26
27
28
29
30
-1
END_DEPOT_SECTION
31
32
33
34
35
36
37
38
39
40
41
42
43
44
45
46
47
48
49
50
51
52
53
54
55
56
57
58
59
60
-1
EOF
